c Nemesis formula in 6CNF in accordance with DIMACS CNF format:
c    Filename: MCNC/c2670/c2670.tdl
c    Formula number 144
c    4846 variables (range: 2 - 4847)
c    1625 clauses
c
c p cnf 4847 1625
p cnf 698 1625
85	0
698	0
85	0
-86	0
84	0
40	-41	0
-40	41	0
84	86	0
-84	-86	0
-691	40	0
-691	84	0
40	84	0
-40	-84	0
691	-41	0
-691	41	0
691	-86	0
-691	86	0
41	-86	0
-41	86	0
113	116	0
-117	-693	0
115	-693	0
117	-694	0
-115	-694	0
-694	692	0
-693	692	0
630	115	0
-630	-115	0
-631	116	0
632	117	0
-632	-117	0
634	630	0
-634	-630	0
-635	631	0
636	632	0
-636	-632	0
496	-634	0
-496	634	0
496	-637	0
-496	637	0
497	-635	0
497	-638	0
498	-636	0
-498	636	0
498	-639	0
-498	639	0
-423	-496	0
-499	-496	0
-500	-496	0
-503	-496	0
-501	497	0
-501	-503	0
-501	-499	0
-501	-423	0
-423	-498	0
-499	-498	0
-502	-498	0
-503	-498	0
-436	-689	0
505	-689	0
436	-690	0
-505	-690	0
-690	503	0
-689	503	0
49	-504	0
-49	504	0
49	-505	0
-49	505	0
49	-661	0
-49	661	0
49	-671	0
-49	671	0
272	-439	0
-272	439	0
272	-440	0
-272	440	0
272	-553	0
-272	553	0
273	272	0
266	272	0
269	272	0
274	272	0
277	274	0
110	274	0
278	274	0
91	-126	0
-91	126	0
91	-127	0
-91	127	0
91	-132	0
-91	132	0
91	-134	0
-91	134	0
91	-140	0
-91	140	0
91	-147	0
-91	147	0
91	-150	0
-91	150	0
91	-155	0
-91	155	0
91	-197	0
-91	197	0
91	-208	0
-91	208	0
91	-268	0
-91	268	0
91	-278	0
-91	278	0
91	-283	0
-91	283	0
91	-285	0
-91	285	0
91	-289	0
-91	289	0
91	-330	0
-91	330	0
91	-334	0
-91	334	0
91	-338	0
-91	338	0
91	-357	0
-91	357	0
91	-361	0
-91	361	0
91	-419	0
-91	419	0
123	-124	0
-123	124	0
123	-125	0
-123	125	0
123	-129	0
-123	129	0
123	-131	0
-123	131	0
123	-144	0
-123	144	0
123	-146	0
-123	146	0
123	-200	0
-123	200	0
123	-203	0
-123	203	0
123	-207	0
-123	207	0
123	-210	0
-123	210	0
123	-275	0
-123	275	0
123	-277	0
-123	277	0
123	-280	0
-123	280	0
123	-282	0
-123	282	0
123	-358	0
-123	358	0
123	-360	0
-123	360	0
123	-418	0
-123	418	0
123	-421	0
-123	421	0
362	123	0
-362	-123	0
43	-135	0
-43	135	0
43	-136	0
-43	136	0
43	-139	0
-43	139	0
43	-141	0
-43	141	0
43	-149	0
-43	149	0
43	-151	0
-43	151	0
43	-154	0
-43	154	0
43	-156	0
-43	156	0
43	-196	0
-43	196	0
43	-198	0
-43	198	0
43	-214	0
-43	214	0
43	-267	0
-43	267	0
43	-270	0
-43	270	0
43	-284	0
-43	284	0
43	-286	0
-43	286	0
43	-288	0
-43	288	0
43	-331	0
-43	331	0
43	-333	0
-43	333	0
43	-335	0
-43	335	0
43	-337	0
-43	337	0
43	-353	0
-43	353	0
43	-356	0
-43	356	0
43	-362	0
-43	362	0
270	269	0
28	269	0
271	269	0
128	-137	0
-128	137	0
128	-138	0
-128	138	0
128	-142	0
-128	142	0
128	-145	0
-128	145	0
128	-152	0
-128	152	0
128	-157	0
-128	157	0
128	-199	0
-128	199	0
128	-201	0
-128	201	0
128	-204	0
-128	204	0
128	-211	0
-128	211	0
128	-215	0
-128	215	0
128	-271	0
-128	271	0
128	-276	0
-128	276	0
128	-281	0
-128	281	0
128	-287	0
-128	287	0
128	-332	0
-128	332	0
128	-336	0
-128	336	0
128	-354	0
-128	354	0
128	-359	0
-128	359	0
128	-422	0
-128	422	0
338	128	0
-338	-128	0
267	266	0
78	266	0
268	266	0
275	273	0
109	273	0
276	273	0
76	-347	0
-76	347	0
76	-348	0
-76	348	0
76	-404	0
-76	404	0
76	-409	0
-76	409	0
76	-415	0
-76	415	0
76	-425	0
-76	425	0
76	-432	0
-76	432	0
76	-438	0
-76	438	0
76	-443	0
-76	443	0
341	-345	0
-341	345	0
341	-346	0
-341	346	0
341	-408	0
-341	408	0
341	-414	0
-341	414	0
341	-424	0
-341	424	0
341	-430	0
-341	430	0
341	-437	0
-341	437	0
341	-442	0
-341	442	0
404	341	0
-404	-341	0
475	500	0
-475	-500	0
-476	501	0
477	502	0
-477	-502	0
-478	-475	0
-481	-475	0
-479	476	0
-479	-481	0
-480	-477	0
-481	-477	0
624	481	0
-550	-624	0
-441	-683	0
652	-683	0
441	-684	0
-652	-684	0
-684	550	0
-683	550	0
23	-652	0
-23	652	0
23	-653	0
-23	653	0
23	-658	0
-23	658	0
23	-672	0
-23	672	0
410	-444	0
-410	444	0
410	-445	0
-410	445	0
410	-507	0
-410	507	0
410	-552	0
-410	552	0
420	410	0
153	410	0
417	410	0
418	417	0
61	417	0
419	417	0
421	420	0
37	420	0
422	420	0
413	-666	0
-413	666	0
413	-667	0
-413	667	0
343	-350	0
-343	350	0
343	-351	0
-343	351	0
343	-416	0
-343	416	0
343	-495	0
-343	495	0
279	343	0
355	343	0
352	343	0
353	352	0
105	352	0
354	352	0
356	355	0
11	355	0
357	355	0
663	662	0
-663	-662	0
67	-616	0
-67	616	0
67	-617	0
-67	617	0
67	-660	0
-67	660	0
67	-663	0
-67	663	0
67	-665	0
-67	665	0
67	-673	0
-67	673	0
666	664	0
-666	-664	0
629	623	0
-629	-623	0
344	-628	0
-344	628	0
344	-629	0
-344	629	0
193	-257	0
-193	257	0
193	-258	0
-193	258	0
193	-328	0
-193	328	0
193	-349	0
-193	349	0
194	193	0
195	193	0
122	193	0
124	122	0
18	122	0
126	122	0
200	194	0
35	194	0
201	194	0
3	-259	0
-3	259	0
3	-260	0
-3	260	0
3	-595	0
-3	595	0
3	-622	0
-3	622	0
3	-627	0
-3	627	0
3	-669	0
-3	669	0
619	-625	0
-619	625	0
619	-626	0
-619	626	0
622	619	0
-622	-619	0
486	478	0
-487	479	0
-483	-654	0
-655	-482	0
-609	-490	0
-491	-608	0
488	480	0
-428	487	0
64	-493	0
-64	493	0
64	-494	0
-64	494	0
64	-573	0
-64	573	0
64	-576	0
-64	576	0
64	-670	0
-64	670	0
-435	432	0
-433	434	0
-431	84	0
-85	430	0
216	-261	0
-216	261	0
216	-262	0
-216	262	0
216	-329	0
-216	329	0
216	-434	0
-216	434	0
143	216	0
217	216	0
213	216	0
214	213	0
107	213	0
215	213	0
288	217	0
80	217	0
289	217	0
489	482	0
-489	-482	0
407	-489	0
-407	489	0
407	-490	0
-407	490	0
205	-411	0
-205	411	0
205	-412	0
-205	412	0
202	205	0
133	205	0
130	205	0
131	130	0
65	130	0
132	130	0
203	202	0
72	202	0
204	202	0
48	-654	0
-48	654	0
48	-657	0
-48	657	0
48	-659	0
-48	659	0
48	-674	0
-48	674	0
485	-608	0
-485	608	0
485	-611	0
-485	611	0
485	-614	0
-485	614	0
659	485	0
-659	-485	0
515	499	0
-516	-515	0
-518	-515	0
-519	-515	0
-520	-515	0
-381	-681	0
554	-681	0
381	-682	0
-554	-682	0
-682	520	0
-681	520	0
50	-464	0
-50	464	0
50	-465	0
-50	465	0
50	-527	0
-50	527	0
50	-554	0
-50	554	0
226	-405	0
-226	405	0
226	-406	0
-226	406	0
226	-474	0
-226	474	0
226	-526	0
-226	526	0
226	-572	0
-226	572	0
158	226	0
221	226	0
218	226	0
219	218	0
90	218	0
220	218	0
47	-163	0
-47	163	0
47	-164	0
-47	164	0
47	-168	0
-47	168	0
47	-174	0
-47	174	0
47	-182	0
-47	182	0
47	-185	0
-47	185	0
47	-190	0
-47	190	0
47	-220	0
-47	220	0
47	-229	0
-47	229	0
47	-232	0
-47	232	0
47	-241	0
-47	241	0
47	-246	0
-47	246	0
47	-251	0
-47	251	0
47	-254	0
-47	254	0
47	-290	0
-47	290	0
47	-293	0
-47	293	0
47	-307	0
-47	307	0
47	-368	0
-47	368	0
47	-370	0
-47	370	0
47	-374	0
-47	374	0
47	-378	0
-47	378	0
178	-180	0
-178	180	0
178	-181	0
-178	181	0
178	-219	0
-178	219	0
178	-222	0
-178	222	0
178	-228	0
-178	228	0
178	-231	0
-178	231	0
178	-234	0
-178	234	0
178	-248	0
-178	248	0
178	-250	0
-178	250	0
178	-253	0
-178	253	0
178	-292	0
-178	292	0
178	-295	0
-178	295	0
178	-298	0
-178	298	0
178	-306	0
-178	306	0
178	-309	0
-178	309	0
178	-317	0
-178	317	0
178	-364	0
-178	364	0
178	-367	0
-178	367	0
178	-369	0
-178	369	0
178	-371	0
-178	371	0
391	178	0
-391	-178	0
74	-161	0
-74	161	0
74	-162	0
-74	162	0
74	-165	0
-74	165	0
74	-167	0
-74	167	0
74	-169	0
-74	169	0
74	-173	0
-74	173	0
74	-175	0
-74	175	0
74	-184	0
-74	184	0
74	-186	0
-74	186	0
74	-189	0
-74	189	0
74	-191	0
-74	191	0
74	-225	0
-74	225	0
74	-240	0
-74	240	0
74	-242	0
-74	242	0
74	-245	0
-74	245	0
74	-303	0
-74	303	0
74	-313	0
-74	313	0
74	-373	0
-74	373	0
74	-375	0
-74	375	0
74	-377	0
-74	377	0
74	-391	0
-74	391	0
160	-170	0
-160	170	0
160	-171	0
-160	171	0
160	-176	0
-160	176	0
160	-179	0
-160	179	0
160	-187	0
-160	187	0
160	-192	0
-160	192	0
160	-223	0
-160	223	0
160	-224	0
-160	224	0
160	-235	0
-160	235	0
160	-243	0
-160	243	0
160	-249	0
-160	249	0
160	-296	0
-160	296	0
160	-299	0
-160	299	0
160	-304	0
-160	304	0
160	-310	0
-160	310	0
160	-314	0
-160	314	0
160	-318	0
-160	318	0
160	-365	0
-160	365	0
160	-372	0
-160	372	0
160	-376	0
-160	376	0
290	160	0
-290	-160	0
161	158	0
101	158	0
163	158	0
59	-384	0
-59	384	0
59	-385	0
-59	385	0
59	-386	0
-59	386	0
59	-389	0
-59	389	0
59	-394	0
-59	394	0
59	-448	0
-59	448	0
59	-453	0
-59	453	0
59	-456	0
-59	456	0
59	-460	0
-59	460	0
59	-463	0
-59	463	0
380	-382	0
-380	382	0
380	-383	0
-380	383	0
380	-388	0
-380	388	0
380	-393	0
-380	393	0
380	-447	0
-380	447	0
380	-452	0
-380	452	0
380	-455	0
-380	455	0
380	-459	0
-380	459	0
380	-462	0
-380	462	0
386	380	0
-386	-380	0
533	519	0
-583	-533	0
-446	-677	0
598	-677	0
446	-678	0
-598	-678	0
-678	583	0
-677	583	0
92	-597	0
-92	597	0
92	-598	0
-92	598	0
92	-601	0
-92	601	0
265	-326	0
-265	326	0
265	-327	0
-265	327	0
265	-449	0
-265	449	0
265	-470	0
-265	470	0
265	-472	0
-265	472	0
363	265	0
166	265	0
366	265	0
367	366	0
2	366	0
368	366	0
364	363	0
32	363	0
365	363	0
340	-585	0
-340	585	0
340	-586	0
-340	586	0
118	-263	0
-118	263	0
118	-264	0
-118	264	0
118	-339	0
-118	339	0
118	-342	0
-118	342	0
119	118	0
120	118	0
121	118	0
125	121	0
56	121	0
127	121	0
129	119	0
5	119	0
137	119	0
580	579	0
-580	-579	0
111	-255	0
-111	255	0
111	-256	0
-111	256	0
111	-580	0
-111	580	0
111	-584	0
-111	584	0
111	-594	0
-111	594	0
585	581	0
-585	-581	0
537	532	0
-537	-532	0
387	-536	0
-387	536	0
387	-537	0
-387	537	0
311	-324	0
-311	324	0
311	-325	0
-311	325	0
311	-390	0
-311	390	0
311	-473	0
-311	473	0
311	-506	0
-311	506	0
311	-525	0
-311	525	0
311	-551	0
-311	551	0
308	311	0
239	311	0
305	311	0
306	305	0
54	305	0
307	305	0
309	308	0
25	308	0
310	308	0
55	-528	0
-55	528	0
55	-529	0
-55	529	0
55	-535	0
-55	535	0
395	-396	0
-395	396	0
395	-397	0
-395	397	0
395	-534	0
-395	534	0
529	395	0
-529	-395	0
563	518	0
564	518	0
521	518	0
559	518	0
612	559	0
562	559	0
458	-561	0
-458	561	0
458	-562	0
-458	562	0
236	-546	0
-236	546	0
236	-547	0
-236	547	0
236	-571	0
-236	571	0
236	-596	0
-236	596	0
236	-645	0
-236	645	0
236	-646	0
-236	646	0
236	-649	0
-236	649	0
233	236	0
183	236	0
227	236	0
228	227	0
22	227	0
229	227	0
234	233	0
103	233	0
235	233	0
560	-612	0
-560	612	0
560	-613	0
-560	613	0
560	-615	0
-560	615	0
604	560	0
-604	-560	0
1	-603	0
-1	603	0
1	-604	0
-1	604	0
1	-633	0
-1	633	0
51	-574	0
-51	574	0
51	-575	0
-51	575	0
51	-577	0
-51	577	0
51	-605	0
-51	605	0
315	-538	0
-315	538	0
315	-539	0
-315	539	0
315	-542	0
-315	542	0
315	-570	0
-315	570	0
315	-641	0
-315	641	0
315	-642	0
-315	642	0
315	-644	0
-315	644	0
315	-647	0
-315	647	0
315	-648	0
-315	648	0
315	-650	0
-315	650	0
315	-651	0
-315	651	0
247	315	0
244	315	0
312	315	0
313	312	0
39	312	0
314	312	0
245	244	0
26	244	0
246	244	0
-565	-564	0
-522	-564	0
-555	-564	0
-454	-679	0
557	-679	0
454	-680	0
-557	-680	0
-680	555	0
-679	555	0
93	-556	0
-93	556	0
93	-557	0
-93	557	0
93	-582	0
-93	582	0
237	-320	0
-237	320	0
237	-321	0
-237	321	0
237	-457	0
-237	457	0
237	-523	0
-237	523	0
237	-544	0
-237	544	0
237	-566	0
-237	566	0
237	-587	0
-237	587	0
237	-593	0
-237	593	0
238	237	0
172	237	0
230	237	0
231	230	0
62	230	0
232	230	0
298	238	0
44	238	0
299	238	0
-392	-685	0
530	-685	0
392	-686	0
-530	-686	0
-686	522	0
-685	522	0
79	-530	0
-79	530	0
79	-531	0
-79	531	0
79	-578	0
-79	578	0
79	-618	0
-79	618	0
319	-466	0
-319	466	0
319	-467	0
-319	467	0
319	-468	0
-319	468	0
319	-524	0
-319	524	0
319	-549	0
-319	549	0
319	-599	0
-319	599	0
319	-602	0
-319	602	0
316	319	0
188	319	0
252	319	0
253	252	0
19	252	0
254	252	0
317	316	0
82	316	0
318	316	0
-451	-675	0
607	-675	0
451	-676	0
-607	-676	0
-676	565	0
-675	565	0
99	-606	0
-99	606	0
99	-607	0
-99	607	0
99	-620	0
-99	620	0
99	-621	0
-99	621	0
297	-567	0
-297	567	0
297	-568	0
-297	568	0
297	-569	0
-297	569	0
297	-591	0
-297	591	0
297	-640	0
-297	640	0
297	-643	0
-297	643	0
297	-668	0
-297	668	0
294	297	0
159	297	0
291	297	0
292	291	0
104	291	0
293	291	0
295	294	0
45	294	0
296	294	0
558	563	0
603	563	0
561	558	0
-561	-558	0
-379	-687	0
517	-687	0
379	-688	0
-517	-688	0
-688	516	0
-687	516	0
68	-322	0
-68	322	0
68	-323	0
-68	323	0
68	-517	0
-68	517	0
68	-600	0
-68	600	0
300	-398	0
-300	398	0
300	-399	0
-300	399	0
300	-403	0
-300	403	0
300	-469	0
-300	469	0
300	-471	0
-300	471	0
177	300	0
301	300	0
302	300	0
303	302	0
75	302	0
304	302	0
377	301	0
77	301	0
378	301	0
-514	-512	0
-540	-512	0
508	-540	0
-508	540	0
508	-541	0
-508	541	0
508	-545	0
-508	545	0
508	-588	0
-508	588	0
508	-590	0
-508	590	0
510	508	0
-510	-508	0
106	-510	0
-106	510	0
106	-511	0
-106	511	0
106	-543	0
-106	543	0
106	-548	0
-106	548	0
106	-589	0
-106	589	0
106	-592	0
-106	592	0
450	-513	0
-450	513	0
450	-514	0
-450	514	0
36	450	0
-36	-450	0
-513	-509	0
-511	-509	0
212	-400	0
-212	400	0
212	-401	0
-212	401	0
212	-402	0
-212	402	0
212	-426	0
-212	426	0
209	212	0
148	212	0
206	212	0
207	206	0
8	206	0
208	206	0
210	209	0
30	209	0
211	209	0
-114	-696	0
112	-696	0
114	-697	0
-112	-697	0
-697	695	0
-696	695	0
637	112	0
-637	-112	0
-638	113	0
639	114	0
-639	-114	0
-695	698	0
-692	698	0
691	-84	-40	0
693	117	-115	0
694	-117	115	0
-692	694	693	0
-116	115	117	0
-116	-115	-117	0
-631	630	632	0
-631	-630	-632	0
-497	635	638	0
-638	637	639	0
-638	-637	-639	0
-635	634	636	0
-635	-634	-636	0
-497	496	498	0
-497	-496	-498	0
689	436	-505	0
690	-436	505	0
-503	690	689	0
-437	-33	-436	0
-440	-438	-436	0
438	33	436	0
440	33	436	0
438	437	436	0
440	437	436	0
-501	500	502	0
-501	-500	-502	0
475	478	481	0
-476	475	477	0
-476	-475	-477	0
477	480	481	0
626	628	481	0
623	627	481	0
-665	-664	-624	0
-667	-662	-624	0
683	441	-652	0
684	-441	652	0
-550	684	683	0
-442	-102	-441	0
-445	-443	-441	0
443	102	441	0
445	102	441	0
443	442	441	0
445	442	441	0
156	154	153	0
94	154	153	0
157	154	153	0
156	66	153	0
94	66	153	0
157	66	153	0
156	155	153	0
94	155	153	0
157	155	153	0
-414	-29	-413	0
-416	-415	-413	0
415	29	413	0
416	29	413	0
415	414	413	0
416	414	413	0
282	280	279	0
81	280	279	0
283	280	279	0
282	73	279	0
81	73	279	0
283	73	279	0
282	281	279	0
81	281	279	0
283	281	279	0
-346	-34	-344	0
-349	-348	-344	0
348	34	344	0
349	34	344	0
348	346	344	0
349	346	344	0
198	196	195	0
53	196	195	0
199	196	195	0
198	87	195	0
53	87	195	0
199	87	195	0
198	197	195	0
53	197	195	0
199	197	195	0
608	490	478	0
482	654	478	0
-483	-484	488	0
-483	-482	486	0
-483	486	488	0
-655	-656	488	0
-655	-654	486	0
-655	486	488	0
-609	-610	488	0
-609	-608	486	0
-609	486	488	0
-491	-492	488	0
-491	-490	486	0
-491	486	488	0
-487	482	654	0
-487	608	490	0
-483	608	490	0
-655	608	490	0
-609	482	654	0
-491	482	654	0
-479	478	480	0
-479	-478	-480	0
608	490	480	0
482	654	480	0
494	427	486	0
-494	-427	486	0
-494	427	-486	0
494	-427	-486	0
-487	486	488	0
-487	-486	-488	0
494	429	488	0
-494	-429	488	0
-494	429	-488	0
494	-429	-488	0
-430	-84	-427	0
-434	-432	-427	0
432	84	427	0
434	84	427	0
432	430	427	0
434	430	427	0
-435	-430	-84	0
-433	-430	-84	0
-431	-434	-432	0
-85	-434	-432	0
-428	427	429	0
-428	-427	-429	0
-430	-86	-429	0
-434	-432	-429	0
432	86	429	0
434	86	429	0
432	430	429	0
434	430	429	0
146	144	143	0
14	144	143	0
147	144	143	0
146	16	143	0
14	16	143	0
147	16	143	0
146	145	143	0
14	145	143	0
147	145	143	0
-408	-40	-407	0
-411	-409	-407	0
409	40	407	0
411	40	407	0
409	408	407	0
411	408	407	0
136	135	133	0
13	135	133	0
138	135	133	0
136	100	133	0
13	100	133	0
138	100	133	0
136	134	133	0
13	134	133	0
138	134	133	0
512	509	499	0
-515	-509	-499	0
-515	-512	-499	0
681	381	-554	0
682	-381	554	0
-520	682	681	0
-383	-17	-381	0
-405	-385	-381	0
385	17	381	0
405	17	381	0
385	383	381	0
405	383	381	0
-225	-224	-221	0
224	222	221	0
225	222	221	0
224	38	221	0
225	38	221	0
224	223	221	0
225	223	221	0
534	536	519	0
532	535	519	0
-584	-581	-533	0
-586	-579	-533	0
677	446	-598	0
678	-446	598	0
-583	678	677	0
-447	-88	-446	0
-449	-448	-446	0
448	88	446	0
449	88	446	0
448	447	446	0
449	447	446	0
169	167	166	0
95	167	166	0
171	167	166	0
169	21	166	0
95	21	166	0
171	21	166	0
169	168	166	0
95	168	166	0
171	168	166	0
-345	-96	-340	0
-342	-347	-340	0
347	96	340	0
342	96	340	0
347	345	340	0
342	345	340	0
141	139	120	0
60	139	120	0
142	139	120	0
141	7	120	0
60	7	120	0
142	7	120	0
141	140	120	0
60	140	120	0
142	140	120	0
-388	-108	-387	0
-390	-389	-387	0
389	108	387	0
390	108	387	0
389	388	387	0
390	388	387	0
242	240	239	0
46	240	239	0
243	240	239	0
242	15	239	0
46	15	239	0
243	15	239	0
242	241	239	0
46	241	239	0
243	241	239	0
-559	-612	-562	0
-459	-58	-458	0
-546	-460	-458	0
460	58	458	0
546	58	458	0
460	459	458	0
546	459	458	0
186	184	183	0
57	184	183	0
187	184	183	0
186	10	183	0
57	10	183	0
187	10	183	0
186	185	183	0
57	185	183	0
187	185	183	0
574	461	521	0
-574	-461	521	0
-574	461	-521	0
574	-461	-521	0
-462	-24	-461	0
-538	-463	-461	0
463	24	461	0
538	24	461	0
463	462	461	0
538	462	461	0
250	248	247	0
20	248	247	0
251	248	247	0
250	63	247	0
20	63	247	0
251	63	247	0
250	249	247	0
20	249	247	0
251	249	247	0
679	454	-557	0
680	-454	557	0
-555	680	679	0
-455	-31	-454	0
-457	-456	-454	0
456	31	454	0
457	31	454	0
456	455	454	0
457	455	454	0
175	173	172	0
52	173	172	0
176	173	172	0
175	12	172	0
52	12	172	0
176	12	172	0
175	174	172	0
52	174	172	0
176	174	172	0
685	392	-530	0
686	-392	530	0
-522	686	685	0
-393	-4	-392	0
-466	-394	-392	0
394	4	392	0
466	4	392	0
394	393	392	0
466	393	392	0
191	189	188	0
69	189	188	0
192	189	188	0
191	98	188	0
69	98	188	0
192	98	188	0
191	190	188	0
69	190	188	0
192	190	188	0
675	451	-607	0
676	-451	607	0
-565	676	675	0
-452	-9	-451	0
-567	-453	-451	0
453	9	451	0
567	9	451	0
453	452	451	0
567	452	451	0
165	162	159	0
6	162	159	0
170	162	159	0
165	27	159	0
6	27	159	0
170	27	159	0
165	164	159	0
6	164	159	0
170	164	159	0
-563	-558	-603	0
687	379	-517	0
688	-379	517	0
-516	688	687	0
-382	-42	-379	0
-398	-384	-379	0
384	42	379	0
398	42	379	0
384	382	379	0
398	382	379	0
181	180	177	0
71	180	177	0
182	180	177	0
181	83	177	0
71	83	177	0
182	83	177	0
181	179	177	0
71	179	177	0
182	179	177	0
512	514	540	0
509	513	511	0
-424	-70	-423	0
-426	-425	-423	0
425	70	423	0
426	70	423	0
425	424	423	0
426	424	423	0
151	149	148	0
89	149	148	0
152	149	148	0
151	97	148	0
89	97	148	0
152	97	148	0
151	150	148	0
89	150	148	0
152	150	148	0
696	114	-112	0
697	-114	112	0
-695	697	696	0
-113	112	114	0
-113	-112	-114	0
-698	695	692	0
-274	-277	-110	-278	0
-269	-270	-28	-271	0
-266	-267	-78	-268	0
-273	-275	-109	-276	0
-624	-627	-628	-481	0
-624	-623	-628	-481	0
-624	-627	-626	-481	0
-624	-623	-626	-481	0
550	662	664	624	0
550	667	664	624	0
550	662	665	624	0
550	667	665	624	0
-410	-420	-153	-417	0
-417	-418	-61	-419	0
-155	-66	-154	-153	0
-157	-94	-156	-153	0
-420	-421	-37	-422	0
-343	-279	-355	-352	0
-352	-353	-105	-354	0
-355	-356	-11	-357	0
-281	-73	-280	-279	0
-283	-81	-282	-279	0
-193	-194	-195	-122	0
-122	-124	-18	-126	0
-197	-87	-196	-195	0
-199	-53	-198	-195	0
-194	-200	-35	-201	0
-486	-654	-490	-478	0
-486	-482	-490	-478	0
-486	-654	-608	-478	0
-486	-482	-608	-478	0
-488	-654	-490	-480	0
-488	-482	-490	-480	0
-488	-654	-608	-480	0
-488	-482	-608	-480	0
-216	-143	-217	-213	0
-213	-214	-107	-215	0
-217	-288	-80	-289	0
-145	-16	-144	-143	0
-147	-14	-146	-143	0
-205	-202	-133	-130	0
-130	-131	-65	-132	0
-134	-100	-135	-133	0
-138	-13	-136	-133	0
-202	-203	-72	-204	0
-226	-158	-221	-218	0
-218	-219	-90	-220	0
-223	-38	-222	-221	0
-158	-161	-101	-163	0
-533	-535	-536	-519	0
-533	-532	-536	-519	0
-533	-535	-534	-519	0
-533	-532	-534	-519	0
583	579	581	533	0
583	586	581	533	0
583	579	584	533	0
583	586	584	533	0
-265	-363	-166	-366	0
-366	-367	-2	-368	0
-168	-21	-167	-166	0
-171	-95	-169	-166	0
-363	-364	-32	-365	0
-118	-119	-120	-121	0
-121	-125	-56	-127	0
-140	-7	-139	-120	0
-142	-60	-141	-120	0
-119	-129	-5	-137	0
-311	-308	-239	-305	0
-305	-306	-54	-307	0
-241	-15	-240	-239	0
-243	-46	-242	-239	0
-308	-309	-25	-310	0
-236	-233	-183	-227	0
-227	-228	-22	-229	0
-185	-10	-184	-183	0
-187	-57	-186	-183	0
-233	-234	-103	-235	0
-315	-247	-244	-312	0
-312	-313	-39	-314	0
-244	-245	-26	-246	0
-249	-63	-248	-247	0
-251	-20	-250	-247	0
564	565	522	555	0
-237	-238	-172	-230	0
-230	-231	-62	-232	0
-174	-12	-173	-172	0
-176	-52	-175	-172	0
-238	-298	-44	-299	0
-319	-316	-188	-252	0
-252	-253	-19	-254	0
-190	-98	-189	-188	0
-192	-69	-191	-188	0
-316	-317	-82	-318	0
-297	-294	-159	-291	0
-291	-292	-104	-293	0
-164	-27	-162	-159	0
-170	-6	-165	-159	0
-294	-295	-45	-296	0
-300	-177	-301	-302	0
-302	-303	-75	-304	0
-301	-377	-77	-378	0
-179	-83	-180	-177	0
-182	-71	-181	-177	0
-212	-209	-148	-206	0
-206	-207	-8	-208	0
-150	-97	-149	-148	0
-152	-89	-151	-148	0
-209	-210	-30	-211	0
496	423	499	500	503	0
498	423	499	502	503	0
-272	-273	-266	-269	-274	0
515	516	518	519	520	0
-518	-563	-564	-521	-559	0
